
===== New CPLEX run =====
Instance: /home/yorig/tuner/mpils-tests/instances/miplib/medium-1/momentum1.mps
Config: /scratch/yorig/mpils-results-grid-ticks-10000/medium-1/16proc/seed-5/6_momentum1_seed-5_20260425_215516/iterated_local_search/run_2_worker_1/ils_config_6175179298870912236.prm
========================

Selected objective sense:  MINIMIZE
Selected objective  name:  MINIMIZE
Selected RHS        name:  rhs
Selected bound      name:  bnd
Version identifier: 22.1.2.0 | 2024-11-26 | 0edbb82fd
CPXPARAM_Threads                                 8
CPXPARAM_Parallel                                1
CPXPARAM_MIP_Cuts_Cliques                        -1
CPXPARAM_MIP_Cuts_FlowCovers                     2
CPXPARAM_MIP_Cuts_Implied                        1
CPXPARAM_MIP_Limits_GomoryCand                   25
CPXPARAM_MIP_Cuts_Gomory                         1
CPXPARAM_MIP_Cuts_PathCut                        1
CPXPARAM_MIP_Cuts_Disjunctive                    -1
CPXPARAM_Emphasis_MIP                            4
CPXPARAM_DetTimeLimit                            10000
1 of 13 MIP starts provided solutions.
MIP start 'm1' defined initial solution with objective 109198.5250.
Tried aggregator 3 times.
MIP Presolve eliminated 30810 rows and 1362 columns.
MIP Presolve modified 22293 coefficients.
Aggregator did 232 substitutions.
Reduced MIP has 11638 rows, 3580 columns, and 46688 nonzeros.
Reduced MIP has 1625 binaries, 0 generals, 0 SOSs, and 0 indicators.
Presolve time = 0.10 sec. (139.58 ticks)
Probing fixed 392 vars, tightened 1078 bounds.
Probing changed sense of 113 constraints.
Probing time = 0.08 sec. (90.30 ticks)
Cover probing fixed 0 vars, tightened 267 bounds.
Tried aggregator 2 times.
MIP Presolve eliminated 3295 rows and 847 columns.
MIP Presolve modified 7082 coefficients.
Aggregator did 11 substitutions.
Reduced MIP has 8332 rows, 2722 columns, and 31418 nonzeros.
Reduced MIP has 1168 binaries, 0 generals, 0 SOSs, and 0 indicators.
Presolve time = 0.04 sec. (44.43 ticks)
Probing fixed 1 vars, tightened 256 bounds.
Probing time = 0.04 sec. (44.20 ticks)
Cover probing fixed 0 vars, tightened 190 bounds.
Tried aggregator 1 time.
Detecting symmetries...
MIP Presolve eliminated 26 rows and 2 columns.
MIP Presolve modified 5059 coefficients.
Reduced MIP has 8306 rows, 2720 columns, and 31355 nonzeros.
Reduced MIP has 1167 binaries, 0 generals, 0 SOSs, and 0 indicators.
Presolve time = 0.02 sec. (22.06 ticks)
Probing fixed 0 vars, tightened 90 bounds.
Probing time = 0.04 sec. (40.55 ticks)
Cover probing fixed 0 vars, tightened 69 bounds.
Clique table members: 18692.
MIP emphasis: hidden feasible solutions.
MIP search method: dynamic search.
Parallel mode: deterministic, using up to 8 threads.
Root relaxation solution time = 0.11 sec. (144.31 ticks)

        Nodes                                         Cuts/
   Node  Left     Objective  IInf  Best Integer    Best Bound    ItCnt     Gap

*     0+    0                       109198.5250    44880.8652            58.90%
      0     0    79213.0345   216   109198.5250    79213.0345     1531   27.46%
*     0+    0                       109198.5247    79213.0345            27.46%
      0     0    96254.6477   296   109198.5247     Cuts: 168     2062   11.85%
      0     0    96260.5529   272   109198.5247      Cuts: 73     2371   11.85%
      0     0    96261.7473   283   109198.5247      Cuts: 31     2475   11.85%
*     0+    0                       109198.4181    96261.7473            11.85%
      0     0  -1.00000e+75     0   109198.4181    96261.7473     2475   11.85%
      0     0    96272.5034   257   109198.4181      Cuts: 10     2594   11.84%
      0     0    96274.6027   256   109198.4181      Cuts: 18     2757   11.84%
Detecting symmetries...
Detecting symmetries...
      0     2    96274.6027   256   109198.4181    96274.6027     2757   11.84%
Elapsed time = 3.12 sec. (4496.46 ticks, tree = 0.02 MB, solutions = 3)
     23    21    98478.0393   245   109198.4181    96286.7582     5050   11.82%
     53    46    96506.3496   234   109198.4181    96286.7582     8045   11.82%
     75     8    96323.4263   244   109198.4181    96286.7582     3732   11.82%
     81    78   104951.1421   163   109198.4181    96286.7582    17470   11.82%
    109    90    96408.6791   226   109198.4181    96286.7582    21612   11.82%
    137   108   102755.0879   162   109198.4181    96286.7582    27452   11.82%
    163   138   109197.5129   141   109198.4181    96286.7582    36377   11.82%
    177   148   102833.4654   273   109198.4181    96286.7582    37541   11.82%
    194   152    infeasible         109198.4181    96286.7582    38633   11.82%
    270   194    97738.6177   174   109198.4181    96286.7582    52262   11.82%
Elapsed time = 5.10 sec. (7785.62 ticks, tree = 1.08 MB, solutions = 3)
    455   306   102719.1990   159   109198.4181    96319.8844    72952   11.79%
*   506+  315                       109184.1775    96319.8844            11.78%
*   586+  325                       109184.0156    96319.8997            11.78%
    738   515   109106.4657   158   109184.0156    96320.9035    94062   11.78%
*   779+  445                       109182.9340    96320.9035            11.78%

Implied bound cuts applied:  3
Flow cuts applied:  108
Flow path cuts applied:  0
Zero-half cuts applied:  42
Gomory fractional cuts applied:  4

Root node processing (before b&c):
  Real time             =    3.10 sec. (4464.00 ticks)
Parallel b&c, 8 threads:
  Real time             =    3.36 sec. (5542.36 ticks)
  Sync time (average)   =    0.42 sec.
  Wait time (average)   =    0.00 sec.
                          ------------
Total (root+branch&cut) =    6.46 sec. (10006.36 ticks)
Gap: 11.78%
Upper bound: 109183
Lower bound: 96320.9
End of CPLEX run. Time: 6.45933 seconds

===== New CPLEX run =====
Instance: /home/yorig/tuner/mpils-tests/instances/miplib/medium-1/momentum1.mps
Config: /scratch/yorig/mpils-results-grid-ticks-10000/medium-1/16proc/seed-5/6_momentum1_seed-5_20260425_215516/iterated_local_search/run_2_worker_1/ils_config_2322578521526723172.prm
========================

Selected objective sense:  MINIMIZE
Selected objective  name:  MINIMIZE
Selected RHS        name:  rhs
Selected bound      name:  bnd
Version identifier: 22.1.2.0 | 2024-11-26 | 0edbb82fd
CPXPARAM_Threads                                 8
CPXPARAM_Parallel                                1
CPXPARAM_MIP_Cuts_Cliques                        -1
CPXPARAM_MIP_Cuts_FlowCovers                     2
CPXPARAM_MIP_Cuts_Implied                        1
CPXPARAM_MIP_Cuts_Gomory                         1
CPXPARAM_MIP_Cuts_PathCut                        1
CPXPARAM_MIP_Cuts_Disjunctive                    -1
CPXPARAM_Emphasis_MIP                            4
CPXPARAM_DetTimeLimit                            10000
1 of 13 MIP starts provided solutions.
MIP start 'm1' defined initial solution with objective 109198.5250.
Tried aggregator 3 times.
MIP Presolve eliminated 30810 rows and 1362 columns.
MIP Presolve modified 22293 coefficients.
Aggregator did 232 substitutions.
Reduced MIP has 11638 rows, 3580 columns, and 46688 nonzeros.
Reduced MIP has 1625 binaries, 0 generals, 0 SOSs, and 0 indicators.
Presolve time = 0.10 sec. (139.58 ticks)
Probing fixed 392 vars, tightened 1078 bounds.
Probing changed sense of 113 constraints.
Probing time = 0.08 sec. (90.30 ticks)
Cover probing fixed 0 vars, tightened 267 bounds.
Tried aggregator 2 times.
MIP Presolve eliminated 3295 rows and 847 columns.
MIP Presolve modified 7082 coefficients.
Aggregator did 11 substitutions.
Reduced MIP has 8332 rows, 2722 columns, and 31418 nonzeros.
Reduced MIP has 1168 binaries, 0 generals, 0 SOSs, and 0 indicators.
Presolve time = 0.04 sec. (44.43 ticks)
Probing fixed 1 vars, tightened 256 bounds.
Probing time = 0.04 sec. (44.20 ticks)
Cover probing fixed 0 vars, tightened 190 bounds.
Tried aggregator 1 time.
Detecting symmetries...
MIP Presolve eliminated 26 rows and 2 columns.
MIP Presolve modified 5059 coefficients.
Reduced MIP has 8306 rows, 2720 columns, and 31355 nonzeros.
Reduced MIP has 1167 binaries, 0 generals, 0 SOSs, and 0 indicators.
Presolve time = 0.02 sec. (22.06 ticks)
Probing fixed 0 vars, tightened 90 bounds.
Probing time = 0.04 sec. (40.55 ticks)
Cover probing fixed 0 vars, tightened 69 bounds.
Clique table members: 18692.
MIP emphasis: hidden feasible solutions.
MIP search method: dynamic search.
Parallel mode: deterministic, using up to 8 threads.
Root relaxation solution time = 0.12 sec. (144.31 ticks)

        Nodes                                         Cuts/
   Node  Left     Objective  IInf  Best Integer    Best Bound    ItCnt     Gap

*     0+    0                       109198.5250    44880.8652            58.90%
      0     0    79213.0345   216   109198.5250    79213.0345     1531   27.46%
*     0+    0                       109198.5247    79213.0345            27.46%
      0     0    96254.6477   296   109198.5247     Cuts: 192     2062   11.85%
      0     0    96260.5529   272   109198.5247      Cuts: 73     2371   11.85%
      0     0    96261.8422   295   109198.5247      Cuts: 31     2470   11.85%
*     0+    0                       109198.5246    96261.8422            11.85%
      0     0  -1.00000e+75     0   109198.5246    96261.8422     2470   11.85%
      0     0    96272.5131   258   109198.5246      Cuts: 19     2564   11.84%
      0     0    96274.6263   257   109198.5246      Cuts: 18     2605   11.84%
Detecting symmetries...
Detecting symmetries...
      0     2    96274.6263   257   109198.5246    96274.6263     2605   11.84%
Elapsed time = 3.00 sec. (4367.86 ticks, tree = 0.02 MB, solutions = 3)
     22    17    96350.5948   273   109198.5246    96286.7870     4651   11.82%
     57    48    96374.5226   284   109198.5246    96286.7870     8106   11.82%
     75    70   102758.8104   144   109198.5246    96286.7870    12426   11.82%
     93    87    96308.6873   234   109198.5246    96286.7870    18628   11.82%
    110    73    96994.1615   225   109198.5246    96286.7870    14252   11.82%
    156   123   103119.9465   239   109198.5246    96286.7870    29417   11.82%
    180   144   102777.1240   158   109198.5246    96286.7870    34409   11.82%
    208   151   109143.8595   133   109198.5246    96286.7870    34953   11.82%
    224   163        cutoff         109198.5246    96286.7870    38523   11.82%
    395   295    98599.6049   207   109198.5246    96286.7870    56947   11.82%
Elapsed time = 5.10 sec. (7583.54 ticks, tree = 0.81 MB, solutions = 3)
    560   374        cutoff         109198.5246    96300.6484    74013   11.81%
    748   513    96696.9781   215   109198.5246    96300.6484    95161   11.81%
*   752+  501                       109197.6791    96300.6484            11.81%
*   803+  454                       109172.7315    96308.9854            11.78%
*   814+  454                       109160.6715    96308.9854            11.77%

Implied bound cuts applied:  3
Flow cuts applied:  111
Flow path cuts applied:  0
Zero-half cuts applied:  33
Gomory fractional cuts applied:  17

Root node processing (before b&c):
  Real time             =    2.98 sec. (4337.58 ticks)
Parallel b&c, 8 threads:
  Real time             =    3.61 sec. (5667.68 ticks)
  Sync time (average)   =    0.44 sec.
  Wait time (average)   =    0.00 sec.
                          ------------
Total (root+branch&cut) =    6.59 sec. (10005.26 ticks)
Gap: 11.77%
Upper bound: 109161
Lower bound: 96309
End of CPLEX run. Time: 6.59065 seconds

===== New CPLEX run =====
Instance: /home/yorig/tuner/mpils-tests/instances/miplib/medium-1/momentum1.mps
Config: /scratch/yorig/mpils-results-grid-ticks-10000/medium-1/16proc/seed-5/6_momentum1_seed-5_20260425_215516/iterated_local_search/run_2_worker_1/ils_config_12436494173371743866.prm
========================

Selected objective sense:  MINIMIZE
Selected objective  name:  MINIMIZE
Selected RHS        name:  rhs
Selected bound      name:  bnd
Version identifier: 22.1.2.0 | 2024-11-26 | 0edbb82fd
CPXPARAM_Threads                                 8
CPXPARAM_Parallel                                1
CPXPARAM_MIP_Strategy_Branch                     1
CPXPARAM_MIP_Cuts_Cliques                        -1
CPXPARAM_MIP_Cuts_FlowCovers                     2
CPXPARAM_MIP_Cuts_Implied                        1
CPXPARAM_MIP_Cuts_Gomory                         1
CPXPARAM_MIP_Cuts_PathCut                        1
CPXPARAM_MIP_Cuts_Disjunctive                    -1
CPXPARAM_Emphasis_MIP                            4
CPXPARAM_DetTimeLimit                            10000
1 of 13 MIP starts provided solutions.
MIP start 'm1' defined initial solution with objective 109198.5250.
Tried aggregator 3 times.
MIP Presolve eliminated 30810 rows and 1362 columns.
MIP Presolve modified 22293 coefficients.
Aggregator did 232 substitutions.
Reduced MIP has 11638 rows, 3580 columns, and 46688 nonzeros.
Reduced MIP has 1625 binaries, 0 generals, 0 SOSs, and 0 indicators.
Presolve time = 0.10 sec. (139.58 ticks)
Probing fixed 392 vars, tightened 1078 bounds.
Probing changed sense of 113 constraints.
Probing time = 0.08 sec. (90.30 ticks)
Cover probing fixed 0 vars, tightened 267 bounds.
Tried aggregator 2 times.
MIP Presolve eliminated 3295 rows and 847 columns.
MIP Presolve modified 7082 coefficients.
Aggregator did 11 substitutions.
Reduced MIP has 8332 rows, 2722 columns, and 31418 nonzeros.
Reduced MIP has 1168 binaries, 0 generals, 0 SOSs, and 0 indicators.
Presolve time = 0.04 sec. (44.43 ticks)
Probing fixed 1 vars, tightened 256 bounds.
Probing time = 0.04 sec. (44.20 ticks)
Cover probing fixed 0 vars, tightened 190 bounds.
Tried aggregator 1 time.
Detecting symmetries...
MIP Presolve eliminated 26 rows and 2 columns.
MIP Presolve modified 5059 coefficients.
Reduced MIP has 8306 rows, 2720 columns, and 31355 nonzeros.
Reduced MIP has 1167 binaries, 0 generals, 0 SOSs, and 0 indicators.
Presolve time = 0.02 sec. (22.06 ticks)
Probing fixed 0 vars, tightened 90 bounds.
Probing time = 0.04 sec. (40.55 ticks)
Cover probing fixed 0 vars, tightened 69 bounds.
Clique table members: 18692.
MIP emphasis: hidden feasible solutions.
MIP search method: dynamic search.
Parallel mode: deterministic, using up to 8 threads.
Root relaxation solution time = 0.12 sec. (144.31 ticks)

        Nodes                                         Cuts/
   Node  Left     Objective  IInf  Best Integer    Best Bound    ItCnt     Gap

*     0+    0                       109198.5250    44880.8652            58.90%
      0     0    79213.0345   216   109198.5250    79213.0345     1531   27.46%
*     0+    0                       109198.5247    79213.0345            27.46%
      0     0    96254.6477   296   109198.5247     Cuts: 192     2062   11.85%
      0     0    96260.5529   272   109198.5247      Cuts: 73     2371   11.85%
      0     0    96261.8422   295   109198.5247      Cuts: 31     2470   11.85%
*     0+    0                       109198.5246    96261.8422            11.85%
      0     0  -1.00000e+75     0   109198.5246    96261.8422     2470   11.85%
      0     0    96272.5131   258   109198.5246      Cuts: 19     2564   11.84%
      0     0    96274.6263   257   109198.5246      Cuts: 18     2605   11.84%
Detecting symmetries...
Detecting symmetries...
      0     2    96274.6263   257   109198.5246    96274.6263     2605   11.84%
Elapsed time = 3.02 sec. (4367.86 ticks, tree = 0.02 MB, solutions = 3)
     14    15    96309.3275   251   109198.5246    96283.9331     4573   11.83%
     42    38   102729.1944   222   109198.5246    96283.9840     9510   11.83%
     69    44   107506.8664   193   109198.5246    96283.9840    11445   11.83%
     89    63   109116.2950   116   109198.5246    96283.9840    19290   11.83%
    105    64        cutoff         109198.5246    96283.9840    20896   11.83%
    132    72   109125.7507   231   109198.5246    96283.9840    25704   11.83%
    161    89   101098.9138   225   109198.5246    96296.7995    31251   11.81%
    173    63   104853.4482   256   109198.5246    96297.3105    22449   11.81%
    205   100   102815.0078   228   109198.5246    96297.3105    43980   11.81%
    355   137   102975.7081   177   109198.5246    96297.9329    60476   11.81%
Elapsed time = 5.01 sec. (7613.58 ticks, tree = 0.38 MB, solutions = 3)
    456   205    96315.4025   243   109198.5246    96302.3993    76817   11.81%
    658   249   109137.7393   216   109198.5246    96315.5993    89430   11.80%

Implied bound cuts applied:  3
Flow cuts applied:  112
Flow path cuts applied:  0
Zero-half cuts applied:  33
Gomory fractional cuts applied:  17

Root node processing (before b&c):
  Real time             =    3.00 sec. (4337.48 ticks)
Parallel b&c, 8 threads:
  Real time             =    3.46 sec. (5680.96 ticks)
  Sync time (average)   =    0.36 sec.
  Wait time (average)   =    0.00 sec.
                          ------------
Total (root+branch&cut) =    6.46 sec. (10018.44 ticks)
Gap: 11.8%
Upper bound: 109199
Lower bound: 96316.5
End of CPLEX run. Time: 6.45946 seconds

===== New CPLEX run =====
Instance: /home/yorig/tuner/mpils-tests/instances/miplib/medium-1/momentum1.mps
Config: /scratch/yorig/mpils-results-grid-ticks-10000/medium-1/16proc/seed-5/6_momentum1_seed-5_20260425_215516/iterated_local_search/run_2_worker_1/ils_config_8905835774629946122.prm
========================

Selected objective sense:  MINIMIZE
Selected objective  name:  MINIMIZE
Selected RHS        name:  rhs
Selected bound      name:  bnd
Version identifier: 22.1.2.0 | 2024-11-26 | 0edbb82fd
CPXPARAM_Threads                                 8
CPXPARAM_Parallel                                1
CPXPARAM_MIP_Cuts_Cliques                        -1
CPXPARAM_MIP_Cuts_FlowCovers                     2
CPXPARAM_MIP_Cuts_Implied                        1
CPXPARAM_MIP_Cuts_Gomory                         1
CPXPARAM_MIP_Cuts_PathCut                        1
CPXPARAM_MIP_Cuts_Disjunctive                    1
CPXPARAM_Emphasis_MIP                            4
CPXPARAM_DetTimeLimit                            10000
1 of 13 MIP starts provided solutions.
MIP start 'm1' defined initial solution with objective 109198.5250.
Tried aggregator 3 times.
MIP Presolve eliminated 30810 rows and 1362 columns.
MIP Presolve modified 22293 coefficients.
Aggregator did 232 substitutions.
Reduced MIP has 11638 rows, 3580 columns, and 46688 nonzeros.
Reduced MIP has 1625 binaries, 0 generals, 0 SOSs, and 0 indicators.
Presolve time = 0.10 sec. (139.58 ticks)
Probing fixed 392 vars, tightened 1078 bounds.
Probing changed sense of 113 constraints.
Probing time = 0.08 sec. (90.30 ticks)
Cover probing fixed 0 vars, tightened 267 bounds.
Tried aggregator 2 times.
MIP Presolve eliminated 3295 rows and 847 columns.
MIP Presolve modified 7082 coefficients.
Aggregator did 11 substitutions.
Reduced MIP has 8332 rows, 2722 columns, and 31418 nonzeros.
Reduced MIP has 1168 binaries, 0 generals, 0 SOSs, and 0 indicators.
Presolve time = 0.04 sec. (44.43 ticks)
Probing fixed 1 vars, tightened 256 bounds.
Probing time = 0.05 sec. (44.20 ticks)
Cover probing fixed 0 vars, tightened 190 bounds.
Tried aggregator 1 time.
Detecting symmetries...
MIP Presolve eliminated 26 rows and 2 columns.
MIP Presolve modified 5059 coefficients.
Reduced MIP has 8306 rows, 2720 columns, and 31355 nonzeros.
Reduced MIP has 1167 binaries, 0 generals, 0 SOSs, and 0 indicators.
Presolve time = 0.02 sec. (22.06 ticks)
Probing fixed 0 vars, tightened 90 bounds.
Probing time = 0.04 sec. (40.55 ticks)
Cover probing fixed 0 vars, tightened 69 bounds.
Clique table members: 18692.
MIP emphasis: hidden feasible solutions.
MIP search method: dynamic search.
Parallel mode: deterministic, using up to 8 threads.
Root relaxation solution time = 0.12 sec. (144.31 ticks)

        Nodes                                         Cuts/
   Node  Left     Objective  IInf  Best Integer    Best Bound    ItCnt     Gap

*     0+    0                       109198.5250    44880.8652            58.90%
      0     0    79213.0345   216   109198.5250    79213.0345     1531   27.46%
*     0+    0                       109198.5247    79213.0345            27.46%
      0     0    96254.6477   296   109198.5247     Cuts: 192     2062   11.85%
      0     0    96260.5529   272   109198.5247      Cuts: 73     2371   11.85%
      0     0    96261.8422   295   109198.5247      Cuts: 31     2470   11.85%
*     0+    0                       109198.5246    96261.8422            11.85%
      0     0  -1.00000e+75     0   109198.5246    96261.8422     2470   11.85%
      0     0    96272.5131   258   109198.5246      Cuts: 19     2564   11.84%
      0     0    96274.6263   257   109198.5246      Cuts: 18     2605   11.84%
Detecting symmetries...
Detecting symmetries...
      0     2    96274.6263   257   109198.5246    96274.6263     2605   11.84%
Elapsed time = 3.05 sec. (4367.86 ticks, tree = 0.02 MB, solutions = 3)
     22    17    96350.5948   273   109198.5246    96286.7870     4651   11.82%
     57    48    96374.5226   284   109198.5246    96286.7870     8106   11.82%
     75    70   102758.8104   144   109198.5246    96286.7870    12426   11.82%
     93    87    96308.6873   234   109198.5246    96286.7870    18628   11.82%
    110    73    96994.1615   225   109198.5246    96286.7870    14252   11.82%
    156   123   103119.9465   239   109198.5246    96286.7870    29417   11.82%
    180   144   102777.1240   158   109198.5246    96286.7870    34409   11.82%
    208   151   109143.8595   133   109198.5246    96286.7870    34953   11.82%
    224   163        cutoff         109198.5246    96286.7870    38523   11.82%
    395   295    98599.6049   207   109198.5246    96286.7870    56947   11.82%
Elapsed time = 5.15 sec. (7583.54 ticks, tree = 0.81 MB, solutions = 3)
    560   374        cutoff         109198.5246    96300.6484    74013   11.81%
    748   513    96696.9781   215   109198.5246    96300.6484    95161   11.81%
*   752+  501                       109197.6791    96300.6484            11.81%
*   803+  454                       109172.7315    96308.9854            11.78%
*   814+  454                       109160.6715    96308.9854            11.77%

Implied bound cuts applied:  3
Flow cuts applied:  111
Flow path cuts applied:  0
Zero-half cuts applied:  33
Gomory fractional cuts applied:  17
Disjunctive cuts applied:  0
Cone linearizations applied:  0

Root node processing (before b&c):
  Real time             =    3.03 sec. (4337.58 ticks)
Parallel b&c, 8 threads:
  Real time             =    3.53 sec. (5667.68 ticks)
  Sync time (average)   =    0.44 sec.
  Wait time (average)   =    0.00 sec.
                          ------------
Total (root+branch&cut) =    6.56 sec. (10005.26 ticks)
Gap: 11.77%
Upper bound: 109161
Lower bound: 96309
End of CPLEX run. Time: 6.56321 seconds

===== New CPLEX run =====
Instance: /home/yorig/tuner/mpils-tests/instances/miplib/medium-1/momentum1.mps
Config: /scratch/yorig/mpils-results-grid-ticks-10000/medium-1/16proc/seed-5/6_momentum1_seed-5_20260425_215516/iterated_local_search/run_2_worker_1/ils_config_6895689826571190388.prm
========================

Selected objective sense:  MINIMIZE
Selected objective  name:  MINIMIZE
Selected RHS        name:  rhs
Selected bound      name:  bnd
Version identifier: 22.1.2.0 | 2024-11-26 | 0edbb82fd
CPXPARAM_Threads                                 8
CPXPARAM_Parallel                                1
CPXPARAM_MIP_Cuts_Cliques                        -1
CPXPARAM_MIP_Cuts_FlowCovers                     2
CPXPARAM_MIP_Cuts_Implied                        1
CPXPARAM_MIP_Cuts_Gomory                         1
CPXPARAM_MIP_Cuts_PathCut                        1
CPXPARAM_MIP_Cuts_Disjunctive                    -1
CPXPARAM_Emphasis_MIP                            3
CPXPARAM_DetTimeLimit                            10000
1 of 13 MIP starts provided solutions.
MIP start 'm1' defined initial solution with objective 109198.5250.
Tried aggregator 3 times.
MIP Presolve eliminated 30810 rows and 1362 columns.
MIP Presolve modified 22293 coefficients.
Aggregator did 232 substitutions.
Reduced MIP has 11638 rows, 3580 columns, and 46688 nonzeros.
Reduced MIP has 1625 binaries, 0 generals, 0 SOSs, and 0 indicators.
Presolve time = 0.11 sec. (139.58 ticks)
Probing fixed 392 vars, tightened 1078 bounds.
Probing changed sense of 113 constraints.
Probing time = 0.08 sec. (90.30 ticks)
Cover probing fixed 0 vars, tightened 267 bounds.
Tried aggregator 2 times.
MIP Presolve eliminated 3295 rows and 847 columns.
MIP Presolve modified 7082 coefficients.
Aggregator did 11 substitutions.
Reduced MIP has 8332 rows, 2722 columns, and 31418 nonzeros.
Reduced MIP has 1168 binaries, 0 generals, 0 SOSs, and 0 indicators.
Presolve time = 0.04 sec. (44.43 ticks)
Probing fixed 1 vars, tightened 256 bounds.
Probing time = 0.05 sec. (44.20 ticks)
Cover probing fixed 0 vars, tightened 190 bounds.
Tried aggregator 1 time.
Detecting symmetries...
MIP Presolve eliminated 26 rows and 2 columns.
MIP Presolve modified 5059 coefficients.
Reduced MIP has 8306 rows, 2720 columns, and 31355 nonzeros.
Reduced MIP has 1167 binaries, 0 generals, 0 SOSs, and 0 indicators.
Presolve time = 0.02 sec. (22.06 ticks)
Probing fixed 0 vars, tightened 89 bounds.
Probing time = 0.04 sec. (39.92 ticks)
Cover probing fixed 0 vars, tightened 147 bounds.
Probing added 13032 nonzeros.
Clique table members: 6596.
MIP emphasis: best bound.
MIP search method: dynamic search.
Parallel mode: deterministic, using up to 8 threads.
Root relaxation solution time = 0.25 sec. (247.03 ticks)

        Nodes                                         Cuts/
   Node  Left     Objective  IInf  Best Integer    Best Bound    ItCnt     Gap

*     0+    0                       109198.5250    44880.8652            58.90%
      0     0    79213.2171   240   109198.5250    79213.2171     1586   27.46%
*     0+    0                       109198.5247    79213.2171            27.46%
      0     0    96257.0881   293   109198.5247     Cuts: 154     2060   11.85%
      0     0    96259.6488   313   109198.5247      Cuts: 82     2327   11.85%
*     0+    0                       109198.4730    96259.6488            11.85%
      0     0    96261.2388   302   109198.4730      Cuts: 67     2525   11.85%
*     0+    0                       109198.4730    96261.2388            11.85%
      0     0  -1.00000e+75     0   109198.4730    96261.2388     2525   11.85%
      0     0    96261.8203   304   109198.4730      Cuts: 31     2603   11.85%
      0     0    96265.0277   315   109198.4730      Cuts: 23     2825   11.84%
Detecting symmetries...
*     0+    0                       109198.4729    96265.0277            11.84%
      0     0  -1.00000e+75     0   109198.4729    96265.0277     2825   11.84%
Detecting symmetries...
      0     2    96265.0277   315   109198.4729    96265.0277     2825   11.84%
Elapsed time = 5.80 sec. (8608.62 ticks, tree = 0.02 MB, solutions = 5)
      1     3    96266.0147   296   109198.4729    96265.0556     2905   11.84%
      2     3    96338.7529   270   109198.4729    96265.0556     3580   11.84%
      5     6    96290.5203   251   109198.4729    96266.1970     4438   11.84%
*     8+    5                       109198.4728    96279.8383            11.83%
*    10+    6                       109198.3729    96279.8383            11.83%
     10     8    99509.8144   277   109198.3729    96279.8383     5378   11.83%
     15    12    99506.8271   256   109198.3729    96283.3537     6427   11.83%

Cover cuts applied:  2
Implied bound cuts applied:  4
Flow cuts applied:  278
Mixed integer rounding cuts applied:  357
Flow path cuts applied:  0
Zero-half cuts applied:  13
Lift and project cuts applied:  1
Gomory fractional cuts applied:  6

Root node processing (before b&c):
  Real time             =    5.76 sec. (8560.71 ticks)
Parallel b&c, 8 threads:
  Real time             =    0.90 sec. (1447.84 ticks)
  Sync time (average)   =    0.34 sec.
  Wait time (average)   =    0.00 sec.
                          ------------
Total (root+branch&cut) =    6.67 sec. (10008.54 ticks)
Gap: 11.82%
Upper bound: 109198
Lower bound: 96286.2
End of CPLEX run. Time: 6.66701 seconds

===== New CPLEX run =====
Instance: /home/yorig/tuner/mpils-tests/instances/miplib/medium-1/momentum1.mps
Config: /scratch/yorig/mpils-results-grid-ticks-10000/medium-1/16proc/seed-5/6_momentum1_seed-5_20260425_215516/iterated_local_search/run_2_worker_1/ils_config_5471791093403120536.prm
========================

Selected objective sense:  MINIMIZE
Selected objective  name:  MINIMIZE
Selected RHS        name:  rhs
Selected bound      name:  bnd
Version identifier: 22.1.2.0 | 2024-11-26 | 0edbb82fd
CPXPARAM_Threads                                 8
CPXPARAM_Parallel                                1
CPXPARAM_MIP_Cuts_Cliques                        -1
CPXPARAM_MIP_Cuts_FlowCovers                     2
CPXPARAM_MIP_Cuts_Implied                        1
CPXPARAM_MIP_Cuts_PathCut                        1
CPXPARAM_MIP_Cuts_Disjunctive                    -1
CPXPARAM_Emphasis_MIP                            4
CPXPARAM_DetTimeLimit                            10000
1 of 13 MIP starts provided solutions.
MIP start 'm1' defined initial solution with objective 109198.5250.
Tried aggregator 3 times.
MIP Presolve eliminated 30810 rows and 1362 columns.
MIP Presolve modified 22293 coefficients.
Aggregator did 232 substitutions.
Reduced MIP has 11638 rows, 3580 columns, and 46688 nonzeros.
Reduced MIP has 1625 binaries, 0 generals, 0 SOSs, and 0 indicators.
Presolve time = 0.10 sec. (139.58 ticks)
Probing fixed 392 vars, tightened 1078 bounds.
Probing changed sense of 113 constraints.
Probing time = 0.08 sec. (90.30 ticks)
Cover probing fixed 0 vars, tightened 267 bounds.
Tried aggregator 2 times.
MIP Presolve eliminated 3295 rows and 847 columns.
MIP Presolve modified 7082 coefficients.
Aggregator did 11 substitutions.
Reduced MIP has 8332 rows, 2722 columns, and 31418 nonzeros.
Reduced MIP has 1168 binaries, 0 generals, 0 SOSs, and 0 indicators.
Presolve time = 0.04 sec. (44.43 ticks)
Probing fixed 1 vars, tightened 256 bounds.
Probing time = 0.04 sec. (44.20 ticks)
Cover probing fixed 0 vars, tightened 190 bounds.
Tried aggregator 1 time.
Detecting symmetries...
MIP Presolve eliminated 26 rows and 2 columns.
MIP Presolve modified 5059 coefficients.
Reduced MIP has 8306 rows, 2720 columns, and 31355 nonzeros.
Reduced MIP has 1167 binaries, 0 generals, 0 SOSs, and 0 indicators.
Presolve time = 0.02 sec. (22.06 ticks)
Probing fixed 0 vars, tightened 90 bounds.
Probing time = 0.04 sec. (40.55 ticks)
Cover probing fixed 0 vars, tightened 69 bounds.
Clique table members: 18692.
MIP emphasis: hidden feasible solutions.
MIP search method: dynamic search.
Parallel mode: deterministic, using up to 8 threads.
Root relaxation solution time = 0.12 sec. (144.31 ticks)

        Nodes                                         Cuts/
   Node  Left     Objective  IInf  Best Integer    Best Bound    ItCnt     Gap

*     0+    0                       109198.5250    44880.8652            58.90%
      0     0    79213.0345   216   109198.5250    79213.0345     1531   27.46%
*     0+    0                       109198.5247    79213.0345            27.46%
      0     0    96254.6477   296   109198.5247     Cuts: 192     2062   11.85%
      0     0    96260.5529   272   109198.5247      Cuts: 73     2371   11.85%
      0     0    96261.8422   295   109198.5247      Cuts: 31     2470   11.85%
*     0+    0                       109198.5246    96261.8422            11.85%
      0     0  -1.00000e+75     0   109198.5246    96261.8422     2470   11.85%
      0     0    96272.5131   258   109198.5246      Cuts: 19     2564   11.84%
      0     0    96274.6263   257   109198.5246      Cuts: 18     2605   11.84%
Detecting symmetries...
Detecting symmetries...
      0     2    96274.6263   257   109198.5246    96274.6263     2605   11.84%
Elapsed time = 3.13 sec. (4365.94 ticks, tree = 0.02 MB, solutions = 3)
     22    17    96350.5948   273   109198.5246    96286.7870     4686   11.82%
     55    46    96500.9158   265   109198.5246    96286.7870     7835   11.82%
     76    73    96473.4829   250   109198.5246    96286.7870    12592   11.82%
     93    90    96320.7539   264   109198.5246    96286.7870    18886   11.82%
    126   108    96355.4647   232   109198.5246    96286.7870    22045   11.82%
    172   137   103070.0510   218   109198.5246    96286.7870    27314   11.82%
    207   123   109160.6322   248   109198.5246    96286.7870    26091   11.82%
    235   186   104949.1971   149   109198.5246    96286.7870    34227   11.82%
    277   217   102818.0088   177   109198.5246    96286.7870    40978   11.82%
    402   301        cutoff         109198.5246    96300.8928    60611   11.81%
Elapsed time = 5.10 sec. (7575.37 ticks, tree = 1.00 MB, solutions = 3)
    517   397    96325.9985   236   109198.5246    96301.6863    79529   11.81%
    795   515        cutoff         109198.5246    96309.3594    93919   11.80%
*   806+  451                       109198.0985    96309.3594            11.80%

Implied bound cuts applied:  3
Flow cuts applied:  111
Flow path cuts applied:  0
Zero-half cuts applied:  33
Gomory fractional cuts applied:  17

Root node processing (before b&c):
  Real time             =    3.11 sec. (4335.63 ticks)
Parallel b&c, 8 threads:
  Real time             =    3.47 sec. (5680.89 ticks)
  Sync time (average)   =    0.42 sec.
  Wait time (average)   =    0.00 sec.
                          ------------
Total (root+branch&cut) =    6.58 sec. (10016.52 ticks)
Gap: 11.8%
Upper bound: 109198
Lower bound: 96309.4
End of CPLEX run. Time: 6.58005 seconds
